
Gurobi 6.5.2 (linux64) logging started Wed Mar 15 12:47:26 2017


Gurobi 6.5.2 (linux64) logging started Wed Mar 15 12:47:26 2017

Optimize a model with 101 rows, 418 columns and 839 nonzeros
Coefficient statistics:
  Matrix range    [1e+00, 2e+00]
  Objective range [2e+00, 1e+02]
  Bounds range    [1e+00, 1e+00]
  RHS range       [1e+00, 1e+00]
Presolve removed 50 rows and 48 columns
Presolve time: 0.00s
Presolved: 51 rows, 370 columns, 740 nonzeros
Variable types: 0 continuous, 370 integer (370 binary)

Root relaxation: objective 1.130000e+03, 74 iterations, 0.00 seconds

    Nodes    |    Current Node    |     Objective Bounds      |     Work
 Expl Unexpl |  Obj  Depth IntInf | Incumbent    BestBd   Gap | It/Node Time

     0     0 1130.00000    0    8          - 1130.00000      -     -    0s
     0     0 1132.00000    0   14          - 1132.00000      -     -    0s
     0     0 1132.50000    0   12          - 1132.50000      -     -    0s
     0     0 1133.50000    0   12          - 1133.50000      -     -    0s
     0     0 1134.83333    0   32          - 1134.83333      -     -    0s
     0     0 1136.00000    0   30          - 1136.00000      -     -    0s
     0     0 1136.00000    0   14          - 1136.00000      -     -    0s
H    0     0                    1170.0000000 1136.00000  2.91%     -    0s
H    0     0                    1160.0000000 1136.00000  2.07%     -    0s
     0     0 1136.00000    0   14 1160.00000 1136.00000  2.07%     -    0s
H    0     0                    1147.0000000 1136.00000  0.96%     -    0s
     0     0 1138.00000    0    5 1147.00000 1138.00000  0.78%     -    0s
     0     0 1140.00000    0   18 1147.00000 1140.00000  0.61%     -    0s
     0     0 1141.00000    0   17 1147.00000 1141.00000  0.52%     -    0s
     0     0 1142.00000    0   19 1147.00000 1142.00000  0.44%     -    0s
     0     0 1142.05882    0   24 1147.00000 1142.05882  0.43%     -    0s
     0     0 1142.05882    0    8 1147.00000 1142.05882  0.43%     -    0s
     0     0 1142.07692    0   20 1147.00000 1142.07692  0.43%     -    0s
     0     0 1142.12500    0   20 1147.00000 1142.12500  0.43%     -    0s
     0     0 1142.20000    0   20 1147.00000 1142.20000  0.42%     -    0s
H    0     0                    1145.0000000 1142.20000  0.24%     -    0s
     0     0 1142.23077    0   23 1145.00000 1142.23077  0.24%     -    0s
     0     0 1142.25000    0   15 1145.00000 1142.25000  0.24%     -    0s
     0     0 1143.00000    0    3 1145.00000 1143.00000  0.17%     -    0s
     0     0 1144.00000    0    3 1145.00000 1144.00000  0.09%     -    0s

Cutting planes:
  Gomory: 2
  Clique: 1
  Lazy constraints: 2

Explored 0 nodes (272 simplex iterations) in 0.04 seconds
Thread count was 8 (of 8 available processors)

Optimal solution found (tolerance 1.00e-04)
Best objective 1.145000000000e+03, best bound 1.145000000000e+03, gap 0.0%
